8991 20467
52314 15121
51149 34902
28034 48537
48762 64690
64907 22171
28648 13012
7 21677
27970 38557
8361 7820
9084 39492
44874 8462
64870 62882
15587 25073
35998 17831
2664 46826
21137 3284
7017 63036
55695 65531
27289 40710
3359 40870
10712 19960
47139 31298
32498 31088
34582 59857
